
******************************************************************************
This program contains Ipopt, a library for large-scale nonlinear optimization.
 Ipopt is released as open source code under the Eclipse Public License (EPL).
         For more information visit http://projects.coin-or.org/Ipopt

This version of Ipopt was compiled from source code available at
    https://github.com/IDAES/Ipopt as part of the Institute for the Design of
    Advanced Energy Systems Process Systems Engineering Framework (IDAES PSE
    Framework) Copyright (c) 2018-2019. See https://github.com/IDAES/idaes-pse.

This version of Ipopt was compiled using HSL, a collection of Fortran codes
    for large-scale scientific computation.  All technical papers, sales and
    publicity material resulting from use of the HSL codes within IPOPT must
    contain the following acknowledgement:
        HSL, a collection of Fortran codes for large-scale scientific
        computation. See http://www.hsl.rl.ac.uk.
******************************************************************************

This is Ipopt version 3.13.2, running with linear solver ma27.

Number of nonzeros in equality constraint Jacobian...:      958
Number of nonzeros in inequality constraint Jacobian.:        0
Number of nonzeros in Lagrangian Hessian.............:      832

Total number of variables............................:      416
                     variables with only lower bounds:      128
                variables with lower and upper bounds:      224
                     variables with only upper bounds:        0
Total number of equality constraints.................:      415
Total number of inequality constraints...............:        0
        inequality constraints with only lower bounds:        0
   inequality constraints with lower and upper bounds:        0
        inequality constraints with only upper bounds:        0

iter    objective    inf_pr   inf_du lg(mu)  ||d||  lg(rg) alpha_du alpha_pr  ls
   0  0.0000000e+00 5.52e-01 8.88e-16  -1.0 0.00e+00    -  0.00e+00 0.00e+00   0
   1  4.7403621e-01 5.05e+00 1.63e+05  -1.0 1.20e+05    -  4.08e-01 4.38e-01h  1
   2  8.8970452e-01 3.21e+00 1.16e+05  -1.0 5.43e+04    -  8.65e-01 2.83e-01h  1
   3  9.0861136e-01 3.15e+00 1.15e+05  -1.0 1.03e+05    -  8.88e-01 1.60e-02h  1
   4  3.7076455e+00 4.48e-01 8.34e+04  -1.0 1.16e+05    -  3.85e-01 7.92e-01h  1
   5  3.7808801e+00 4.30e-01 8.01e+04  -1.0 4.26e+04    -  3.20e-02 4.01e-02h  1
   6  6.5436297e+00 1.38e-01 1.26e+03  -1.0 5.80e+04    -  5.24e-03 9.90e-01h  1
   7  6.6615271e+00 1.88e-02 9.02e+01  -1.0 2.75e+03    -  9.87e-01 9.90e-01h  1
   8  6.6937782e+00 8.81e-04 9.29e+00  -1.0 7.27e+02    -  9.90e-01 9.90e-01h  1
   9  6.7618265e+00 3.56e-05 1.08e+04  -1.0 1.52e+03    -  9.90e-01 9.90e-01h  1
iter    objective    inf_pr   inf_du lg(mu)  ||d||  lg(rg) alpha_du alpha_pr  ls
  10  6.7350570e+00 2.66e-05 2.74e+08  -2.5 2.55e+03    -  9.97e-01 2.32e-01f  3
  11  6.6570132e+00 8.44e-06 2.09e+06  -2.5 1.74e+03    -  1.00e+00 9.97e-01h  1
  12  6.6579088e+00 2.87e-08 4.66e+08  -2.5 2.10e+01    -  1.00e+00 9.97e-01h  1
In iteration 12, 32 Slacks too small, adjusting variable bounds
  13  6.6579101e+00 8.17e-11 1.65e+11  -2.5 3.18e-02    -  1.00e+00 9.97e-01h  1
  14  6.6579101e+00 8.69e-12 2.17e-03  -2.5 9.01e-05    -  1.00e+00 1.00e+00h  1
  15  6.6550707e+00 2.99e-11 5.99e+08  -9.0 6.36e+01    -  1.00e+00 9.96e-01F  1
  16  6.6550707e+00 2.40e-11 8.47e-08  -9.0 2.98e-05    -  1.00e+00 1.00e+00h  1

Number of Iterations....: 16

                                   (scaled)                 (unscaled)
Objective...............:   6.6550707024726048e+00    6.6550707024726048e+00
Dual infeasibility......:   8.4677594713866711e-08    8.4677594713866711e-08
Constraint violation....:   2.3958168782201028e-11    2.3958168782201028e-11
Complementarity.........:   9.0910370415568760e-10    9.0910370415568760e-10
Overall NLP error.......:   2.4623564249474966e-09    8.4677594713866711e-08


Number of objective function evaluations             = 22
Number of objective gradient evaluations             = 17
Number of equality constraint evaluations            = 22
Number of inequality constraint evaluations          = 0
Number of equality constraint Jacobian evaluations   = 17
Number of inequality constraint Jacobian evaluations = 0
Number of Lagrangian Hessian evaluations             = 16
Total CPU secs in IPOPT (w/o function evaluations)   =      0.036
Total CPU secs in NLP function evaluations           =      0.372

EXIT: Optimal Solution Found.
